; faust :: corpus-study/repo_src/faust/faust/transport/conductor.py :: EVENT 'Conductor._subscription_changed' :: naive encoding (verdict: unsat)
; Generated by snf-pipeline (encoder.py) -- run with any
; SMT-LIB2-compliant solver, e.g. `z3 faust__corpus-study_repo_src_faust_faust_transport_conductor.py__Conductor._subscription_changed__naive.smt2`
; benchmark generated from python API
(set-info :status unknown)
(assert
 false)
(check-sat)
